[[34, 46, 8, 7, 35, 19, 53, 14, 59, 11, 66, 65, 38, 10, 58, 72, 31, 39, 9, 25, 55, 18, 50, 32, 40, 12, 17, 51, 3, 44, 24, 49, 16, 63, 23, 56], [41, 43, 42, 64, 22, 33, 73, 62, 2, 74, 28, 61, 21, 48, 47, 69, 36, 71, 60, 70, 20, 37, 5, 15, 57, 13, 54, 52, 27, 29, 45, 30, 4, 68, 6, 75, 76, 26, 67]]